nK = 2283;
nT = 6;
nI = 14;
L = 35;
TT = 468;
np = 1;
nc = 3;
b = [35, 51, 65, 42, 27, 31, 31, 63, 29, 36, 66, 61, 66, 28];
d = [80, 115, 122, 65, 139, 93, 79, 124, 68, 135, 133, 109, 113, 96];
m = [1.1, 1.1, 1.4, 1.1, 1.6, 1.3, 2.2, 1.3, 1.5, 1.8, 2.3, 1.3, 2.2, 2.4];
pt = [0.25, 0.2, 0.26, 0.23, 0.24, 0.34];
st = [11.75, 11.4, 11.44, 12.19, 11.04, 19.38];
arc = {<1, 0, 1, 1, 0, 0, 0, [1, 1, 1, 1, 1, 1]>, <2, 1, 2, 1, 0, 0, 0, [1, 1, 1, 1, 1, 1]>, <3, 2, 3, 1, 0, 0, 0, [1, 1, 1, 1, 1, 1]>, <4, 3, 4, 1, 0, 0, 0, [1, 1, 1, 1, 1, 1]>, <5, 4, 5, 1, 0, 0, 0, [1, 1, 1, 1, 1, 1]>, <6, 5, 6, 1, 0, 0, 0, [1, 1, 1, 1, 1, 1]>, <7, 6, 7, 1, 0, 0, 0, [1, 1, 1, 1, 1, 1]>, <8, 7, 8, 1, 0, 0, 0, [1, 1, 1, 1, 1, 1]>, <9, 8, 9, 1, 0, 0, 0, [1, 1, 1, 1, 1, 1]>, <10, 9, 10, 1, 0, 0, 0, [1, 1, 1, 1, 1, 1]>, <11, 10, 11, 1, 0, 0, 0, [1, 1, 1, 1, 1, 1]>, <12, 11, 12, 1, 0, 0, 0, [1, 1, 1, 1, 1, 1]>, <13, 12, 13, 1, 0, 0, 0, [1, 1, 1, 1, 1, 1]>, <14, 13, 14, 1, 0, 0, 0, [1, 1, 1, 1, 1, 1]>, <15, 14, 15, 1, 0, 0, 0, [1, 1, 1, 1, 1, 1]>, <16, 15, 16, 1, 0, 0, 0, [1, 1, 1, 1, 1, 1]>, <17, 16, 17, 1, 0, 0, 0, [1, 1, 1, 1, 1, 1]>, <18, 17, 18, 1, 0, 0, 0, [1, 1, 1, 1, 1, 1]>, <19, 18, 19, 1, 0, 0, 0, [1, 1, 1, 1, 1, 1]>, <20, 19, 20, 1, 0, 0, 0, [1, 1, 1, 1, 1, 1]>, <21, 20, 21, 1, 0, 0, 0, [1, 1, 1, 1, 1, 1]>, <22, 21, 22, 1, 0, 0, 0, [1, 1, 1, 1, 1, 1]>, <23, 22, 23, 1, 0, 0, 0, [1, 1, 1, 1, 1, 1]>, <24, 23, 24, 1, 0, 0, 0, [1, 1, 1, 1, 1, 1]>, <25, 24, 25, 1, 0, 0, 0, [1, 1, 1, 1, 1, 1]>, <26, 25, 26, 1, 0, 0, 0, [1, 1, 1, 1, 1, 1]>, <27, 26, 27, 1, 0, 0, 0, [1, 1, 1, 1, 1, 1]>, <28, 27, 28, 1, 0, 0, 0, [1, 1, 1, 1, 1, 1]>, <29, 28, 29, 1, 0, 0, 0, [1, 1, 1, 1, 1, 1]>, <30, 29, 30, 1, 0, 0, 0, [1, 1, 1, 1, 1, 1]>, <31, 30, 31, 1, 0, 0, 0, [1, 1, 1, 1, 1, 1]>, <32, 31, 32, 1, 0, 0, 0, [1, 1, 1, 1, 1, 1]>, <33, 32, 33, 1, 0, 0, 0, [1, 1, 1, 1, 1, 1]>, <34, 33, 34, 1, 0, 0, 0, [1, 1, 1, 1, 1, 1]>, <35, 34, 35, 1, 0, 0, 0, [1, 1, 1, 1, 1, 1]>, <36, 0, 20, 20, 1, 0, 1, [1, 1, 1, 0, 0, 1]>, <37, 1, 21, 20, 1, 0, 1, [1, 1, 1, 0, 0, 1]>, <38, 2, 22, 20, 1, 0, 1, [1, 1, 1, 0, 0, 1]>, <39, 3, 23, 20, 1, 0, 1, [1, 1, 1, 0, 0, 1]>, <40, 4, 24, 20, 1, 0, 1, [1, 1, 1, 0, 0, 1]>, <41, 5, 25, 20, 1, 0, 1, [1, 1, 1, 0, 0, 1]>, <42, 6, 26, 20, 1, 0, 1, [1, 1, 1, 0, 0, 1]>, <43, 7, 27, 20, 1, 0, 1, [1, 1, 1, 0, 0, 1]>, <44, 8, 28, 20, 1, 0, 1, [1, 1, 1, 0, 0, 1]>, <45, 9, 29, 20, 1, 0, 1, [1, 1, 1, 0, 0, 1]>, <46, 10, 30, 20, 1, 0, 1, [1, 1, 1, 0, 0, 1]>, <47, 11, 31, 20, 1, 0, 1, [1, 1, 1, 0, 0, 1]>, <48, 12, 32, 20, 1, 0, 1, [1, 1, 1, 0, 0, 1]>, <49, 13, 33, 20, 1, 0, 1, [1, 1, 1, 0, 0, 1]>, <50, 14, 34, 20, 1, 0, 1, [1, 1, 1, 0, 0, 1]>, <51, 15, 35, 20, 1, 0, 1, [1, 1, 1, 0, 0, 1]>, <52, 0, 19, 19, 2, 0, 0, [1, 1, 1, 0, 0, 1]>, <53, 1, 20, 19, 2, 0, 0, [1, 1, 1, 0, 0, 1]>, <54, 2, 21, 19, 2, 0, 0, [1, 1, 1, 0, 0, 1]>, <55, 3, 22, 19, 2, 0, 0, [1, 1, 1, 0, 0, 1]>, <56, 4, 23, 19, 2, 0, 0, [1, 1, 1, 0, 0, 1]>, <57, 5, 24, 19, 2, 0, 0, [1, 1, 1, 0, 0, 1]>, <58, 6, 25, 19, 2, 0, 0, [1, 1, 1, 0, 0, 1]>, <59, 7, 26, 19, 2, 0, 0, [1, 1, 1, 0, 0, 1]>, <60, 8, 27, 19, 2, 0, 0, [1, 1, 1, 0, 0, 1]>, <61, 9, 28, 19, 2, 0, 0, [1, 1, 1, 0, 0, 1]>, <62, 10, 29, 19, 2, 0, 0, [1, 1, 1, 0, 0, 1]>, <63, 11, 30, 19, 2, 0, 0, [1, 1, 1, 0, 0, 1]>, <64, 12, 31, 19, 2, 0, 0, [1, 1, 1, 0, 0, 1]>, <65, 13, 32, 19, 2, 0, 0, [1, 1, 1, 0, 0, 1]>, <66, 14, 33, 19, 2, 0, 0, [1, 1, 1, 0, 0, 1]>, <67, 15, 34, 19, 2, 0, 0, [1, 1, 1, 0, 0, 1]>, <68, 16, 35, 19, 2, 0, 0, [1, 1, 1, 0, 0, 1]>, <69, 0, 17, 17, 3, 0, 1, [1, 0, 0, 1, 1, 1]>, <70, 1, 18, 17, 3, 0, 1, [1, 0, 0, 1, 1, 1]>, <71, 2, 19, 17, 3, 0, 1, [1, 0, 0, 1, 1, 1]>, <72, 3, 20, 17, 3, 0, 1, [1, 0, 0, 1, 1, 1]>, <73, 4, 21, 17, 3, 0, 1, [1, 0, 0, 1, 1, 1]>, <74, 5, 22, 17, 3, 0, 1, [1, 0, 0, 1, 1, 1]>, <75, 6, 23, 17, 3, 0, 1, [1, 0, 0, 1, 1, 1]>, <76, 9, 26, 17, 3, 0, 1, [1, 0, 0, 1, 1, 1]>, <77, 10, 27, 17, 3, 0, 1, [1, 0, 0, 1, 1, 1]>, <78, 11, 28, 17, 3, 0, 1, [1, 0, 0, 1, 1, 1]>, <79, 12, 29, 17, 3, 0, 1, [1, 0, 0, 1, 1, 1]>, <80, 13, 30, 17, 3, 0, 1, [1, 0, 0, 1, 1, 1]>, <81, 14, 31, 17, 3, 0, 1, [1, 0, 0, 1, 1, 1]>, <82, 15, 32, 17, 3, 0, 1, [1, 0, 0, 1, 1, 1]>, <83, 16, 33, 17, 3, 0, 1, [1, 0, 0, 1, 1, 1]>, <84, 17, 34, 17, 3, 0, 1, [1, 0, 0, 1, 1, 1]>, <85, 18, 35, 17, 3, 0, 1, [1, 0, 0, 1, 1, 1]>, <86, 0, 18, 18, 4, 1, 0, [1, 1, 1, 0, 0, 1]>, <87, 1, 19, 18, 4, 1, 0, [1, 1, 1, 0, 0, 1]>, <88, 2, 20, 18, 4, 1, 0, [1, 1, 1, 0, 0, 1]>, <89, 3, 21, 18, 4, 1, 0, [1, 1, 1, 0, 0, 1]>, <90, 4, 22, 18, 4, 1, 0, [1, 1, 1, 0, 0, 1]>, <91, 5, 23, 18, 4, 1, 0, [1, 1, 1, 0, 0, 1]>, <92, 6, 24, 18, 4, 1, 0, [1, 1, 1, 0, 0, 1]>, <93, 8, 26, 18, 4, 1, 0, [1, 1, 1, 0, 0, 1]>, <94, 9, 27, 18, 4, 1, 0, [1, 1, 1, 0, 0, 1]>, <95, 10, 28, 18, 4, 1, 0, [1, 1, 1, 0, 0, 1]>, <96, 11, 29, 18, 4, 1, 0, [1, 1, 1, 0, 0, 1]>, <97, 12, 30, 18, 4, 1, 0, [1, 1, 1, 0, 0, 1]>, <98, 13, 31, 18, 4, 1, 0, [1, 1, 1, 0, 0, 1]>, <99, 14, 32, 18, 4, 1, 0, [1, 1, 1, 0, 0, 1]>, <100, 15, 33, 18, 4, 1, 0, [1, 1, 1, 0, 0, 1]>, <101, 16, 34, 18, 4, 1, 0, [1, 1, 1, 0, 0, 1]>, <102, 17, 35, 18, 4, 1, 0, [1, 1, 1, 0, 0, 1]>, <103, 0, 18, 18, 5, 0, 1, [1, 0, 0, 1, 1, 1]>, <104, 1, 19, 18, 5, 0, 1, [1, 0, 0, 1, 1, 1]>, <105, 2, 20, 18, 5, 0, 1, [1, 0, 0, 1, 1, 1]>, <106, 3, 21, 18, 5, 0, 1, [1, 0, 0, 1, 1, 1]>, <107, 4, 22, 18, 5, 0, 1, [1, 0, 0, 1, 1, 1]>, <108, 5, 23, 18, 5, 0, 1, [1, 0, 0, 1, 1, 1]>, <109, 6, 24, 18, 5, 0, 1, [1, 0, 0, 1, 1, 1]>, <110, 8, 26, 18, 5, 0, 1, [1, 0, 0, 1, 1, 1]>, <111, 9, 27, 18, 5, 0, 1, [1, 0, 0, 1, 1, 1]>, <112, 10, 28, 18, 5, 0, 1, [1, 0, 0, 1, 1, 1]>, <113, 11, 29, 18, 5, 0, 1, [1, 0, 0, 1, 1, 1]>, <114, 12, 30, 18, 5, 0, 1, [1, 0, 0, 1, 1, 1]>, <115, 13, 31, 18, 5, 0, 1, [1, 0, 0, 1, 1, 1]>, <116, 14, 32, 18, 5, 0, 1, [1, 0, 0, 1, 1, 1]>, <117, 15, 33, 18, 5, 0, 1, [1, 0, 0, 1, 1, 1]>, <118, 16, 34, 18, 5, 0, 1, [1, 0, 0, 1, 1, 1]>, <119, 17, 35, 18, 5, 0, 1, [1, 0, 0, 1, 1, 1]>, <120, 0, 22, 22, 6, 0, 0, [0, 0, 1, 1, 1, 1]>, <121, 1, 23, 22, 6, 0, 0, [0, 0, 1, 1, 1, 1]>, <122, 2, 24, 22, 6, 0, 0, [0, 0, 1, 1, 1, 1]>, <123, 3, 25, 22, 6, 0, 0, [0, 0, 1, 1, 1, 1]>, <124, 4, 26, 22, 6, 0, 0, [0, 0, 1, 1, 1, 1]>, <125, 5, 27, 22, 6, 0, 0, [0, 0, 1, 1, 1, 1]>, <126, 6, 28, 22, 6, 0, 0, [0, 0, 1, 1, 1, 1]>, <127, 7, 29, 22, 6, 0, 0, [0, 0, 1, 1, 1, 1]>, <128, 8, 30, 22, 6, 0, 0, [0, 0, 1, 1, 1, 1]>, <129, 9, 31, 22, 6, 0, 0, [0, 0, 1, 1, 1, 1]>, <130, 10, 32, 22, 6, 0, 0, [0, 0, 1, 1, 1, 1]>, <131, 11, 33, 22, 6, 0, 0, [0, 0, 1, 1, 1, 1]>, <132, 12, 34, 22, 6, 0, 0, [0, 0, 1, 1, 1, 1]>, <133, 13, 35, 22, 6, 0, 0, [0, 0, 1, 1, 1, 1]>, <134, 0, 22, 22, 7, 0, 1, [1, 1, 1, 1, 0, 0]>, <135, 1, 23, 22, 7, 0, 1, [1, 1, 1, 1, 0, 0]>, <136, 2, 24, 22, 7, 0, 1, [1, 1, 1, 1, 0, 0]>, <137, 3, 25, 22, 7, 0, 1, [1, 1, 1, 1, 0, 0]>, <138, 4, 26, 22, 7, 0, 1, [1, 1, 1, 1, 0, 0]>, <139, 5, 27, 22, 7, 0, 1, [1, 1, 1, 1, 0, 0]>, <140, 6, 28, 22, 7, 0, 1, [1, 1, 1, 1, 0, 0]>, <141, 7, 29, 22, 7, 0, 1, [1, 1, 1, 1, 0, 0]>, <142, 8, 30, 22, 7, 0, 1, [1, 1, 1, 1, 0, 0]>, <143, 9, 31, 22, 7, 0, 1, [1, 1, 1, 1, 0, 0]>, <144, 10, 32, 22, 7, 0, 1, [1, 1, 1, 1, 0, 0]>, <145, 11, 33, 22, 7, 0, 1, [1, 1, 1, 1, 0, 0]>, <146, 12, 34, 22, 7, 0, 1, [1, 1, 1, 1, 0, 0]>, <147, 13, 35, 22, 7, 0, 1, [1, 1, 1, 1, 0, 0]>, <148, 1, 17, 16, 8, 1, 0, [1, 1, 0, 0, 1, 1]>, <149, 2, 18, 16, 8, 1, 0, [1, 1, 0, 0, 1, 1]>, <150, 3, 19, 16, 8, 1, 0, [1, 1, 0, 0, 1, 1]>, <151, 4, 20, 16, 8, 1, 0, [1, 1, 0, 0, 1, 1]>, <152, 5, 21, 16, 8, 1, 0, [1, 1, 0, 0, 1, 1]>, <153, 6, 22, 16, 8, 1, 0, [1, 1, 0, 0, 1, 1]>, <154, 10, 26, 16, 8, 1, 0, [1, 1, 0, 0, 1, 1]>, <155, 11, 27, 16, 8, 1, 0, [1, 1, 0, 0, 1, 1]>, <156, 12, 28, 16, 8, 1, 0, [1, 1, 0, 0, 1, 1]>, <157, 13, 29, 16, 8, 1, 0, [1, 1, 0, 0, 1, 1]>, <158, 14, 30, 16, 8, 1, 0, [1, 1, 0, 0, 1, 1]>, <159, 15, 31, 16, 8, 1, 0, [1, 1, 0, 0, 1, 1]>, <160, 16, 32, 16, 8, 1, 0, [1, 1, 0, 0, 1, 1]>, <161, 17, 33, 16, 8, 1, 0, [1, 1, 0, 0, 1, 1]>, <162, 18, 34, 16, 8, 1, 0, [1, 1, 0, 0, 1, 1]>, <163, 19, 35, 16, 8, 1, 0, [1, 1, 0, 0, 1, 1]>, <164, 0, 17, 17, 9, 0, 1, [1, 1, 0, 0, 1, 1]>, <165, 1, 18, 17, 9, 0, 1, [1, 1, 0, 0, 1, 1]>, <166, 2, 19, 17, 9, 0, 1, [1, 1, 0, 0, 1, 1]>, <167, 3, 20, 17, 9, 0, 1, [1, 1, 0, 0, 1, 1]>, <168, 4, 21, 17, 9, 0, 1, [1, 1, 0, 0, 1, 1]>, <169, 5, 22, 17, 9, 0, 1, [1, 1, 0, 0, 1, 1]>, <170, 6, 23, 17, 9, 0, 1, [1, 1, 0, 0, 1, 1]>, <171, 9, 26, 17, 9, 0, 1, [1, 1, 0, 0, 1, 1]>, <172, 10, 27, 17, 9, 0, 1, [1, 1, 0, 0, 1, 1]>, <173, 11, 28, 17, 9, 0, 1, [1, 1, 0, 0, 1, 1]>, <174, 12, 29, 17, 9, 0, 1, [1, 1, 0, 0, 1, 1]>, <175, 13, 30, 17, 9, 0, 1, [1, 1, 0, 0, 1, 1]>, <176, 14, 31, 17, 9, 0, 1, [1, 1, 0, 0, 1, 1]>, <177, 15, 32, 17, 9, 0, 1, [1, 1, 0, 0, 1, 1]>, <178, 16, 33, 17, 9, 0, 1, [1, 1, 0, 0, 1, 1]>, <179, 17, 34, 17, 9, 0, 1, [1, 1, 0, 0, 1, 1]>, <180, 18, 35, 17, 9, 0, 1, [1, 1, 0, 0, 1, 1]>, <181, 0, 19, 19, 10, 0, 0, [1, 0, 0, 1, 1, 1]>, <182, 1, 20, 19, 10, 0, 0, [1, 0, 0, 1, 1, 1]>, <183, 2, 21, 19, 10, 0, 0, [1, 0, 0, 1, 1, 1]>, <184, 3, 22, 19, 10, 0, 0, [1, 0, 0, 1, 1, 1]>, <185, 4, 23, 19, 10, 0, 0, [1, 0, 0, 1, 1, 1]>, <186, 5, 24, 19, 10, 0, 0, [1, 0, 0, 1, 1, 1]>, <187, 6, 25, 19, 10, 0, 0, [1, 0, 0, 1, 1, 1]>, <188, 7, 26, 19, 10, 0, 0, [1, 0, 0, 1, 1, 1]>, <189, 8, 27, 19, 10, 0, 0, [1, 0, 0, 1, 1, 1]>, <190, 9, 28, 19, 10, 0, 0, [1, 0, 0, 1, 1, 1]>, <191, 10, 29, 19, 10, 0, 0, [1, 0, 0, 1, 1, 1]>, <192, 11, 30, 19, 10, 0, 0, [1, 0, 0, 1, 1, 1]>, <193, 12, 31, 19, 10, 0, 0, [1, 0, 0, 1, 1, 1]>, <194, 13, 32, 19, 10, 0, 0, [1, 0, 0, 1, 1, 1]>, <195, 14, 33, 19, 10, 0, 0, [1, 0, 0, 1, 1, 1]>, <196, 15, 34, 19, 10, 0, 0, [1, 0, 0, 1, 1, 1]>, <197, 16, 35, 19, 10, 0, 0, [1, 0, 0, 1, 1, 1]>, <198, 0, 20, 20, 11, 1, 0, [0, 0, 1, 1, 1, 1]>, <199, 1, 21, 20, 11, 1, 0, [0, 0, 1, 1, 1, 1]>, <200, 2, 22, 20, 11, 1, 0, [0, 0, 1, 1, 1, 1]>, <201, 3, 23, 20, 11, 1, 0, [0, 0, 1, 1, 1, 1]>, <202, 4, 24, 20, 11, 1, 0, [0, 0, 1, 1, 1, 1]>, <203, 5, 25, 20, 11, 1, 0, [0, 0, 1, 1, 1, 1]>, <204, 6, 26, 20, 11, 1, 0, [0, 0, 1, 1, 1, 1]>, <205, 7, 27, 20, 11, 1, 0, [0, 0, 1, 1, 1, 1]>, <206, 8, 28, 20, 11, 1, 0, [0, 0, 1, 1, 1, 1]>, <207, 9, 29, 20, 11, 1, 0, [0, 0, 1, 1, 1, 1]>, <208, 10, 30, 20, 11, 1, 0, [0, 0, 1, 1, 1, 1]>, <209, 11, 31, 20, 11, 1, 0, [0, 0, 1, 1, 1, 1]>, <210, 12, 32, 20, 11, 1, 0, [0, 0, 1, 1, 1, 1]>, <211, 13, 33, 20, 11, 1, 0, [0, 0, 1, 1, 1, 1]>, <212, 14, 34, 20, 11, 1, 0, [0, 0, 1, 1, 1, 1]>, <213, 15, 35, 20, 11, 1, 0, [0, 0, 1, 1, 1, 1]>, <214, 0, 20, 20, 12, 0, 0, [1, 1, 1, 1, 0, 0]>, <215, 1, 21, 20, 12, 0, 0, [1, 1, 1, 1, 0, 0]>, <216, 2, 22, 20, 12, 0, 0, [1, 1, 1, 1, 0, 0]>, <217, 3, 23, 20, 12, 0, 0, [1, 1, 1, 1, 0, 0]>, <218, 4, 24, 20, 12, 0, 0, [1, 1, 1, 1, 0, 0]>, <219, 5, 25, 20, 12, 0, 0, [1, 1, 1, 1, 0, 0]>, <220, 6, 26, 20, 12, 0, 0, [1, 1, 1, 1, 0, 0]>, <221, 7, 27, 20, 12, 0, 0, [1, 1, 1, 1, 0, 0]>, <222, 8, 28, 20, 12, 0, 0, [1, 1, 1, 1, 0, 0]>, <223, 9, 29, 20, 12, 0, 0, [1, 1, 1, 1, 0, 0]>, <224, 10, 30, 20, 12, 0, 0, [1, 1, 1, 1, 0, 0]>, <225, 11, 31, 20, 12, 0, 0, [1, 1, 1, 1, 0, 0]>, <226, 12, 32, 20, 12, 0, 0, [1, 1, 1, 1, 0, 0]>, <227, 13, 33, 20, 12, 0, 0, [1, 1, 1, 1, 0, 0]>, <228, 14, 34, 20, 12, 0, 0, [1, 1, 1, 1, 0, 0]>, <229, 15, 35, 20, 12, 0, 0, [1, 1, 1, 1, 0, 0]>, <230, 0, 19, 19, 13, 0, 0, [0, 1, 1, 1, 1, 0]>, <231, 1, 20, 19, 13, 0, 0, [0, 1, 1, 1, 1, 0]>, <232, 2, 21, 19, 13, 0, 0, [0, 1, 1, 1, 1, 0]>, <233, 3, 22, 19, 13, 0, 0, [0, 1, 1, 1, 1, 0]>, <234, 4, 23, 19, 13, 0, 0, [0, 1, 1, 1, 1, 0]>, <235, 5, 24, 19, 13, 0, 0, [0, 1, 1, 1, 1, 0]>, <236, 6, 25, 19, 13, 0, 0, [0, 1, 1, 1, 1, 0]>, <237, 7, 26, 19, 13, 0, 0, [0, 1, 1, 1, 1, 0]>, <238, 8, 27, 19, 13, 0, 0, [0, 1, 1, 1, 1, 0]>, <239, 9, 28, 19, 13, 0, 0, [0, 1, 1, 1, 1, 0]>, <240, 10, 29, 19, 13, 0, 0, [0, 1, 1, 1, 1, 0]>, <241, 11, 30, 19, 13, 0, 0, [0, 1, 1, 1, 1, 0]>, <242, 12, 31, 19, 13, 0, 0, [0, 1, 1, 1, 1, 0]>, <243, 13, 32, 19, 13, 0, 0, [0, 1, 1, 1, 1, 0]>, <244, 14, 33, 19, 13, 0, 0, [0, 1, 1, 1, 1, 0]>, <245, 15, 34, 19, 13, 0, 0, [0, 1, 1, 1, 1, 0]>, <246, 16, 35, 19, 13, 0, 0, [0, 1, 1, 1, 1, 0]>, <247, 0, 18, 18, 14, 1, 0, [0, 0, 1, 1, 1, 1]>, <248, 1, 19, 18, 14, 1, 0, [0, 0, 1, 1, 1, 1]>, <249, 2, 20, 18, 14, 1, 0, [0, 0, 1, 1, 1, 1]>, <250, 3, 21, 18, 14, 1, 0, [0, 0, 1, 1, 1, 1]>, <251, 4, 22, 18, 14, 1, 0, [0, 0, 1, 1, 1, 1]>, <252, 5, 23, 18, 14, 1, 0, [0, 0, 1, 1, 1, 1]>, <253, 6, 24, 18, 14, 1, 0, [0, 0, 1, 1, 1, 1]>, <254, 8, 26, 18, 14, 1, 0, [0, 0, 1, 1, 1, 1]>, <255, 9, 27, 18, 14, 1, 0, [0, 0, 1, 1, 1, 1]>, <256, 10, 28, 18, 14, 1, 0, [0, 0, 1, 1, 1, 1]>, <257, 11, 29, 18, 14, 1, 0, [0, 0, 1, 1, 1, 1]>, <258, 12, 30, 18, 14, 1, 0, [0, 0, 1, 1, 1, 1]>, <259, 13, 31, 18, 14, 1, 0, [0, 0, 1, 1, 1, 1]>, <260, 14, 32, 18, 14, 1, 0, [0, 0, 1, 1, 1, 1]>, <261, 15, 33, 18, 14, 1, 0, [0, 0, 1, 1, 1, 1]>, <262, 16, 34, 18, 14, 1, 0, [0, 0, 1, 1, 1, 1]>, <263, 17, 35, 18, 14, 1, 0, [0, 0, 1, 1, 1, 1]>};
